(set-logic QF_SLIA)
(set-option :produce-models true)
(declare-fun x () String)
(assert (str.in_re x (re.+ (re.range "4" "9"))))
(assert (= (mod (mod (str.to_int x) 278) 242) 22))
(assert (> (str.len x) 100))
(check-sat)
(get-model)